polska sparse k=5: arcs=36, intd=28, γ=1, w=15.7827

============================================================
Nominal SP (MILP)
============================================================
Set parameter Username
Set parameter LicenseID to value 2742039
Academic license - for non-commercial use only - expires 2026-11-20
Building 2SP model...
  Nodes: 12, Arcs: 36, Scenarios: 20
  Interdictable arcs: 28
  Dummy arc index: 37
  Parameters: ϕU = 2.0, γ = 1, w = 15.7827, v = 1.0
┌ Warning: Axis contains one element: 1. If intended, you can safely ignore this warning. To explicitly pass the axis with one element, pass `[1]` instead of `1`.
└ @ JuMP.Containers C:\Users\user\.julia\packages\JuMP\i68GU\src\Containers\DenseAxisArray.jl:185
  ✓ Decision variables created
Arc 3 is not interdictable
Arc 15 is not interdictable
Arc 18 is not interdictable
Arc 24 is not interdictable
Arc 33 is not interdictable
Arc 34 is not interdictable
Arc 35 is not interdictable
Arc 36 is not interdictable
  ✓ Constraints (14a-14c) added
  Adding Big-M constraints (14j, 14k)...
  ✓ Big-M constraints (14j, 14k) added
  ✓ Budget constraint (14l) added
  Adding dual constraints (14m-14p)...
  ✓ Dual constraints (14m-14p) added for all scenarios
  ✓ Linearization constraints (14q) added

Model construction summary:
  - Variables: 151810
  - Constraints: 162378
  - Binary variables: 36
================================================================================
Set parameter OutputFlag to value 1
Set parameter OutputFlag to value 1
Gurobi Optimizer version 13.0.0 build v13.0.0rc1 (win64 - Windows 10.0 (19045.2))

CPU model: AMD Ryzen 9 5900X 12-Core Processor, instruction set [SSE2|AVX|AVX2]
Thread count: 12 physical cores, 24 logical processors, using up to 24 threads

Optimize a model with 166551 rows, 151810 columns and 869086 nonzeros (Min)
Model fingerprint: 0x9daf5e76
Model has 41 linear objective coefficients
Variable types: 151774 continuous, 36 integer (36 binary)
Coefficient statistics:
  Matrix range     [1e+00, 2e+02]
  Objective range  [5e-02, 2e+01]
  Bounds range     [2e+00, 2e+00]
  RHS range        [1e-03, 2e+00]
Found heuristic solution: objective 426746.81675
Presolve removed 80391 rows and 83370 columns
Presolve time: 1.48s
Presolved: 86160 rows, 68440 columns, 292397 nonzeros
Found heuristic solution: objective 400940.08227
Variable types: 68412 continuous, 28 integer (28 binary)
Deterministic concurrent LP optimizer: primal and dual simplex
Showing primal log only...


Root simplex log...

Iteration    Objective       Primal Inf.    Dual Inf.      Time
   66049    3.4137608e+02   0.000000e+00   1.001509e+06      5s
Concurrent spin time: 0.00s

Solved with dual simplex

Root simplex log...

Iteration    Objective       Primal Inf.    Dual Inf.      Time
   32027   -4.5953091e+01   0.000000e+00   0.000000e+00      7s

Root relaxation: objective -4.595309e+01, 32027 iterations, 5.21 seconds (11.91 work units)

    Nodes    |    Current Node    |     Objective Bounds      |     Work
 Expl Unexpl |  Obj  Depth IntInf | Incumbent    BestBd   Gap | It/Node Time

     0     0  -45.95309    0   13 400940.082  -45.95309   100%     -   16s
H    0     0                      34.8159522  -45.95309   232%     -   20s
     0     0  -40.73914    0   17   34.81595  -40.73914   217%     -   36s
H    0     0                      32.2061662  -40.73914   226%     -   40s
     0     0  -34.24743    0   13   32.20617  -34.24743   206%     -   40s
     0     0  -19.26797    0   20   32.20617  -19.26797   160%     -   44s
     0     0  -14.19480    0   20   32.20617  -14.19480   144%     -   47s
H    0     0                      31.5375278  -14.19480   145%     -   49s
     0     0   -5.97984    0   20   31.53753   -5.97984   119%     -   51s
     0     0   31.53753    0   19   31.53753   31.53753  0.00%     -   56s

Cutting planes:
  Gomory: 1
  MIR: 446
  Flow cover: 53

Explored 1 nodes (72848 simplex iterations) in 56.47 seconds (106.16 work units)
Thread count was 24 (of 24 available processors)

Solution count 5: 31.5375 32.2062 34.816 ... 426747

Optimal solution found (tolerance 1.00e-04)
Best objective 3.153752784864e+01, best bound 3.153752784864e+01, gap 0.0000%

User-callback calls 4169, time in user-callback 0.00 sec

Nominal SP: Z₀=31.537528, time=57.29s
x_nom arcs = [6]

============================================================
Robust DRO (ε=1.0)
============================================================
[ Info: Inexact mode: 2/3 iters use OptimalityTarget=1 (local opt)
[ Info: MW cut enabled: core point x_core (γ/28 per interdictable arc)
Set parameter Username
Set parameter LicenseID to value 2742039
Academic license - for non-commercial use only - expires 2026-11-20
[ Info: Min-cut VI enabled: Phase 1 (all S) added
Set parameter Username
Set parameter LicenseID to value 2742039
Academic license - for non-commercial use only - expires 2026-11-20
Set parameter Username
Set parameter LicenseID to value 2742039
Academic license - for non-commercial use only - expires 2026-11-20
Set parameter Username
Set parameter LicenseID to value 2742039
Academic license - for non-commercial use only - expires 2026-11-20
Set parameter Username
Set parameter LicenseID to value 2742039
Academic license - for non-commercial use only - expires 2026-11-20
Set parameter Username
Set parameter LicenseID to value 2742039
Academic license - for non-commercial use only - expires 2026-11-20
[ Info: Mini-Benders enabled: max_mini_iter=5

=== True-DRO Benders iter 1 ===
  OMP: t₀=17.541630, UB=Inf, gap=NaN, x=[0, 0, 0, 0, 0, 1, 0, 0, 0, 0, 0, 0, 0, 0, 0, 0, 0, 0, 0, 0, 0, 0, 0, 0, 0, 0, 0, 0, 0, 0, 0, 0, 0, 0, 0, 0] (0.051s)
  Sub: Z₀=32.662310 [LOCAL], α=[0.000,0.000,0.145,0.000,0.000,10.270,0.000,0.000,0.000,0.000,0.000,0.000,0.000,2.608,0.000,0.000,0.000,1.060,0.000,0.000,0.000,0.000,0.492,0.000,0.000,0.000,0.000,0.000,0.000,0.000,0.000,0.000,1.033,0.173,0.000,0.000]
  Iter 1: LB=17.541630  UB=Inf  gap=NaN
  Cut: intercept=-265.067596, π_x_range=[-419.5829, 297.7299]
  Mini-Benders[1] (mw): LB=18.182323, Z₀(α*)=29.862452, intercept=29.862446 (1.005s) [OMP=0.030 ISP-L=0.132 ISP-F=0.228 MW-L=0.207 MW-F=0.238]
  Mini-Benders[2] (mw): LB=18.386505, Z₀(α*)=25.590848, intercept=27.666575 (0.144s) [OMP=0.041 ISP-L=0.007 ISP-F=0.030 MW-L=0.029 MW-F=0.033]
  Mini-Benders[3] (mw): LB=19.190619, Z₀(α*)=29.187495, intercept=28.077955 (0.128s) [OMP=0.033 ISP-L=0.008 ISP-F=0.025 MW-L=0.034 MW-F=0.027]
  Mini-Benders[4] (mw): LB=24.280786, Z₀(α*)=14.900155, intercept=29.862455 (0.147s) [OMP=0.041 ISP-L=0.009 ISP-F=0.033 MW-L=0.032 MW-F=0.028]
  Mini-Benders[5] (mw): LB=24.280786, Z₀(α*)=14.900155, intercept=29.862455 (0.144s) [OMP=0.039 ISP-L=0.009 ISP-F=0.033 MW-L=0.031 MW-F=0.030]
  α-step: Z₀=36.296765, α=[0.000,0.000,2.883,0.000,0.000,0.000,0.000,0.000,0.000,0.000,0.000,0.000,0.000,6.080,0.000,0.000,0.000,1.848,0.000,0.000,0.000,0.000,0.240,0.000,0.000,0.000,0.000,0.000,0.000,0.000,0.000,0.000,0.139,4.592,0.000,0.000]
  Alt-Benders[1] (mw): LB=24.826285, Z₀(α*)=10.856156, intercept=31.883599 (0.157s) [OMP=0.042 ISP-L=0.010 ISP-F=0.025 MW-L=0.037 MW-F=0.041]
  Alt-Benders[2] (mw): LB=24.826285, Z₀(α*)=10.856156, intercept=31.883599 (0.125s) [OMP=0.027 ISP-L=0.010 ISP-F=0.025 MW-L=0.028 MW-F=0.034]
  Alt-Benders[3] (mw): LB=24.826285, Z₀(α*)=10.856156, intercept=31.883599 (0.124s) [OMP=0.027 ISP-L=0.010 ISP-F=0.025 MW-L=0.027 MW-F=0.033]
  Alt-Benders[4]: LB stagnated, break
  OMP re-solve: 0.000s

=== True-DRO Benders iter 2 ===
  OMP: t₀=24.826285, UB=Inf, gap=NaN, x=[0, 0, 0, 0, 0, 0, 0, 0, 0, 0, 0, 0, 0, 0, 0, 0, 0, 0, 0, 0, 0, 1, 0, 0, 0, 0, 0, 0, 0, 0, 0, 0, 0, 0, 0, 0] (0.000s)
  Sub: Z₀=36.280217 [LOCAL], α=[0.000,0.000,1.085,0.000,0.000,0.007,0.000,0.000,0.000,0.000,0.000,0.000,0.000,0.303,0.000,0.000,0.000,3.630,0.000,0.000,0.000,0.000,6.044,0.000,0.000,0.000,0.000,0.000,0.000,0.000,0.000,0.000,4.702,0.013,0.000,0.000]
  Iter 2: LB=24.826285  UB=Inf  gap=NaN
  Cut: intercept=-261.698073, π_x_range=[-420.4153, 297.9783]
  Mini-Benders[1] (mw): LB=25.590846, Z₀(α*)=16.167946, intercept=31.589093 (0.153s) [OMP=0.071 ISP-L=0.006 ISP-F=0.030 MW-L=0.019 MW-F=0.026]
  Mini-Benders[2] (mw): LB=25.590846, Z₀(α*)=16.167946, intercept=31.589093 (0.112s) [OMP=0.038 ISP-L=0.004 ISP-F=0.030 MW-L=0.012 MW-F=0.025]
  Mini-Benders[3] (mw): LB=25.590846, Z₀(α*)=16.167946, intercept=31.589093 (0.111s) [OMP=0.038 ISP-L=0.003 ISP-F=0.030 MW-L=0.014 MW-F=0.024]
  Mini-Benders[4]: LB stagnated, break
  α-step: Z₀=33.407040, α=[0.000,0.000,1.021,0.000,0.000,1.358,0.000,0.000,0.000,0.000,0.000,0.000,0.000,1.680,0.000,0.000,0.000,0.821,0.000,0.000,0.000,0.000,9.062,0.000,0.000,0.000,0.000,0.000,0.000,0.000,0.000,0.000,1.384,0.458,0.000,0.000]
  Alt-Benders[1] (mw): LB=27.289058, Z₀(α*)=18.260411, intercept=27.559361 (0.177s) [OMP=0.072 ISP-L=0.009 ISP-F=0.027 MW-L=0.018 MW-F=0.049]
  Alt-Benders[2] (mw): LB=27.289058, Z₀(α*)=18.260411, intercept=27.559362 (0.138s) [OMP=0.031 ISP-L=0.006 ISP-F=0.027 MW-L=0.022 MW-F=0.050]
  Alt-Benders[3] (mw): LB=27.289058, Z₀(α*)=18.260411, intercept=27.559362 (0.137s) [OMP=0.031 ISP-L=0.006 ISP-F=0.027 MW-L=0.022 MW-F=0.049]
  Alt-Benders[4]: LB stagnated, break
  OMP re-solve: 0.000s

=== True-DRO Benders iter 3 ===
  OMP: t₀=27.289058, UB=Inf, gap=NaN, x=[0, 0, 0, 0, 0, 0, 1, 0, 0, 0, 0, 0, 0, 0, 0, 0, 0, 0, 0, 0, 0, 0, 0, 0, 0, 0, 0, 0, 0, 0, 0, 0, 0, 0, 0, 0] (0.000s)
  Sub: Z₀=35.549586, α=[0.000,0.000,0.000,0.000,0.000,0.000,3.499,0.000,0.000,0.000,0.000,0.000,0.000,3.230,0.000,0.000,0.000,4.044,0.000,0.000,0.000,0.000,1.026,0.000,0.000,0.000,0.000,0.000,0.000,0.000,0.000,0.000,0.182,3.802,0.000,0.000]
  Iter 3: LB=27.289058  UB=35.549586  gap=2.32e-01
  Cut: intercept=28.683188, π_x_range=[-35.3081, 6.8664]
  Sherali-Cut: intercept=29.701907, π_x_range=[-31.5163, 5.8477]
  Mini-Benders[1] (mw): LB=27.430069, Z₀(α*)=24.356260, intercept=19.867119 (0.133s) [OMP=0.040 ISP-L=0.005 ISP-F=0.028 MW-L=0.023 MW-F=0.034]
  Mini-Benders[2] (mw): LB=27.430069, Z₀(α*)=24.356260, intercept=19.867119 (0.123s) [OMP=0.033 ISP-L=0.005 ISP-F=0.028 MW-L=0.022 MW-F=0.034]
  Mini-Benders[3] (mw): LB=27.430069, Z₀(α*)=24.356260, intercept=19.867119 (0.123s) [OMP=0.032 ISP-L=0.005 ISP-F=0.028 MW-L=0.022 MW-F=0.034]
  Mini-Benders[4]: LB stagnated, break
  α-step: Z₀=35.304580, α=[0.000,0.000,3.739,0.000,0.000,0.000,0.000,0.000,0.000,0.000,0.000,0.000,0.000,3.676,0.000,0.000,0.000,0.000,0.000,0.000,0.000,0.000,4.629,0.000,0.000,0.000,0.000,0.000,0.000,0.000,0.000,0.000,3.739,0.000,0.000,0.000]
  Alt-Benders[1] (mw): LB=27.430069, Z₀(α*)=16.341358, intercept=29.331426 (0.136s) [OMP=0.038 ISP-L=0.007 ISP-F=0.031 MW-L=0.027 MW-F=0.031]
  Alt-Benders[2] (mw): LB=27.430069, Z₀(α*)=16.341358, intercept=29.331426 (0.128s) [OMP=0.031 ISP-L=0.007 ISP-F=0.030 MW-L=0.026 MW-F=0.031]
  Alt-Benders[3] (mw): LB=27.430069, Z₀(α*)=16.341358, intercept=29.331426 (0.127s) [OMP=0.031 ISP-L=0.007 ISP-F=0.030 MW-L=0.026 MW-F=0.030]
  Alt-Benders[4]: LB stagnated, break
  OMP re-solve: 0.000s

=== True-DRO Benders iter 4 ===
  OMP: t₀=27.430069, UB=35.549586, gap=2.28e-01, x=[0, 0, 0, 0, 0, 0, 0, 0, 0, 0, 0, 0, 0, 0, 0, 0, 0, 0, 0, 0, 0, 0, 0, 0, 1, 0, 0, 0, 0, 0, 0, 0, 0, 0, 0, 0] (0.000s)
  Sub: Z₀=34.359037 [LOCAL], α=[0.000,0.000,0.000,0.000,0.000,0.300,0.389,0.000,0.000,0.000,0.000,0.000,0.000,4.361,0.000,0.000,0.000,3.719,0.000,0.000,0.000,0.000,0.829,0.000,3.392,0.000,0.000,0.000,0.000,0.000,0.000,0.000,2.607,0.186,0.000,0.000]
  Iter 4: LB=27.430069  UB=35.549586  gap=2.28e-01
  Cut: intercept=-262.400675, π_x_range=[-420.4154, 296.7597]
  Mini-Benders[1] (mw): LB=27.430069, Z₀(α*)=20.069977, intercept=23.162138 (0.126s) [OMP=0.035 ISP-L=0.005 ISP-F=0.030 MW-L=0.017 MW-F=0.037]
  Mini-Benders[2] (mw): LB=27.430069, Z₀(α*)=20.069977, intercept=23.162138 (0.123s) [OMP=0.031 ISP-L=0.005 ISP-F=0.030 MW-L=0.017 MW-F=0.037]
  Mini-Benders[3]: LB stagnated, break
  α-step: Z₀=34.543100, α=[0.000,0.000,2.978,0.000,0.000,2.037,0.000,0.000,0.000,2.284,0.000,0.000,0.000,5.506,0.000,0.000,0.000,0.000,0.000,0.000,0.000,0.000,0.000,0.000,0.000,0.000,0.000,0.000,0.000,0.000,0.000,0.000,0.000,2.978,0.000,0.000]
  Alt-Benders[1] (mw): LB=27.430069, Z₀(α*)=33.020139, intercept=33.020139 (0.138s) [OMP=0.035 ISP-L=0.004 ISP-F=0.028 MW-L=0.035 MW-F=0.034]
  Alt-Benders[2] (mw): LB=29.187493, Z₀(α*)=20.072906, intercept=29.849834 (0.126s) [OMP=0.038 ISP-L=0.008 ISP-F=0.029 MW-L=0.025 MW-F=0.025]
  Alt-Benders[3] (mw): LB=29.187493, Z₀(α*)=20.072906, intercept=29.849834 (0.120s) [OMP=0.030 ISP-L=0.008 ISP-F=0.030 MW-L=0.024 MW-F=0.026]
  Alt-Benders[4] (mw): LB=29.187493, Z₀(α*)=20.072906, intercept=29.849834 (0.119s) [OMP=0.030 ISP-L=0.007 ISP-F=0.030 MW-L=0.024 MW-F=0.026]
  Alt-Benders[5]: LB stagnated, break
  OMP re-solve: 0.000s

=== True-DRO Benders iter 5 ===
  OMP: t₀=29.187493, UB=35.549586, gap=1.79e-01, x=[0, 0, 0, 0, 0, 0, 0, 0, 0, 0, 0, 0, 0, 1, 0, 0, 0, 0, 0, 0, 0, 0, 0, 0, 0, 0, 0, 0, 0, 0, 0, 0, 0, 0, 0, 0] (0.000s)
  Sub: Z₀=33.159956 [LOCAL], α=[0.000,0.000,0.189,0.000,0.000,0.181,0.000,0.000,0.000,0.000,0.000,0.000,0.000,12.067,0.000,0.000,0.000,1.405,0.000,0.000,0.000,0.000,0.345,0.000,0.000,0.000,0.000,0.000,0.000,0.000,0.000,0.000,1.501,0.093,0.000,0.000]
  Iter 5: LB=29.187493  UB=35.549586  gap=1.79e-01
  Cut: intercept=-265.739330, π_x_range=[-420.0613, 298.8993]
  Mini-Benders[1] (mw): LB=31.121537, Z₀(α*)=31.028673, intercept=31.028673 (0.133s) [OMP=0.030 ISP-L=0.004 ISP-F=0.030 MW-L=0.034 MW-F=0.033]
  Mini-Benders[2] (mw): LB=31.121537, Z₀(α*)=31.028673, intercept=31.028673 (0.083s) [OMP=0.029 ISP-L=0.004 ISP-F=0.004 MW-L=0.033 MW-F=0.011]
  Mini-Benders[3] (mw): LB=31.121537, Z₀(α*)=31.028673, intercept=31.028673 (0.132s) [OMP=0.028 ISP-L=0.004 ISP-F=0.030 MW-L=0.032 MW-F=0.035]
  Mini-Benders[4]: LB stagnated, break
  α-step: Z₀=35.038993, α=[0.000,0.000,0.000,0.000,0.000,4.086,0.000,0.000,0.000,0.000,0.000,0.000,0.000,2.980,0.000,0.000,0.000,3.474,0.000,0.000,0.000,0.000,1.769,0.000,0.000,0.000,0.000,0.000,0.000,0.000,0.000,0.000,0.000,3.474,0.000,0.000]
┌ Warning: The addition operator has been used on JuMP expressions a large number of times. This warning is safe to ignore but may indicate that model generation is slower than necessary. For performance reasons, you should not add expressions in a loop. Instead of x += y, use add_to_expression!(x,y) to modify x in place. If y is a single variable, you may also use add_to_expression!(x, coef, y) for x += coef*y.
└ @ JuMP C:\Users\user\.julia\packages\JuMP\i68GU\src\operators.jl:282
  Alt-Benders[1] (mw): LB=31.448135, Z₀(α*)=35.038993, intercept=35.038993 (0.123s) [OMP=0.028 ISP-L=0.004 ISP-F=0.004 MW-L=0.068 MW-F=0.016]
  Alt-Benders[2] (mw): LB=32.662311, Z₀(α*)=20.881198, intercept=28.994751 (0.131s) [OMP=0.034 ISP-L=0.007 ISP-F=0.026 MW-L=0.030 MW-F=0.031]
  Alt-Benders[3] (mw): LB=32.662311, Z₀(α*)=20.881198, intercept=28.994751 (0.121s) [OMP=0.027 ISP-L=0.007 ISP-F=0.026 MW-L=0.027 MW-F=0.032]
  Alt-Benders[4] (mw): LB=32.662311, Z₀(α*)=20.881198, intercept=28.994751 (0.121s) [OMP=0.027 ISP-L=0.007 ISP-F=0.026 MW-L=0.025 MW-F=0.033]
  Alt-Benders[5]: LB stagnated, break
  OMP re-solve: 0.000s

=== True-DRO Benders iter 6 ===
  OMP: t₀=32.662311, UB=35.549586, gap=8.12e-02, x=[0, 0, 0, 0, 0, 1, 0, 0, 0, 0, 0, 0, 0, 0, 0, 0, 0, 0, 0, 0, 0, 0, 0, 0, 0, 0, 0, 0, 0, 0, 0, 0, 0, 0, 0, 0] (0.000s)
  Sub: Z₀=33.016451, α=[0.000,0.000,1.451,0.000,0.000,11.837,0.000,0.000,0.000,0.000,0.000,0.000,0.000,0.000,0.000,0.000,0.000,0.000,0.000,0.000,0.000,0.000,1.044,0.000,0.000,0.000,0.000,0.000,0.000,0.000,0.000,0.000,0.000,1.451,0.000,0.000]
  Iter 6: LB=32.662311  UB=33.016451  gap=1.07e-02
  Cut: intercept=26.652688, π_x_range=[-42.5786, 6.3638]
  Sherali-Cut: intercept=26.972208, π_x_range=[-30.8195, 6.0442]
  Mini-Benders[1] (mw): LB=33.016450, Z₀(α*)=33.016451, intercept=26.972210 (0.126s) [OMP=0.027 ISP-L=0.009 ISP-F=0.025 MW-L=0.032 MW-F=0.031]
  Mini-Benders[1]: gap=2.47e-10 ≤ tol, break
  α-step: Z₀=33.016451, α=[0.000,0.000,0.000,0.000,0.000,6.787,0.000,0.000,0.000,0.000,0.000,0.000,0.000,6.094,0.000,0.000,0.000,1.451,0.000,0.000,0.000,0.000,0.000,0.000,0.000,0.000,0.000,0.000,0.000,0.000,0.000,0.000,1.451,0.000,0.000,0.000]
  Alt-Benders[1] (mw): LB=33.016450, Z₀(α*)=33.016451, intercept=26.972210 (0.114s) [OMP=0.027 ISP-L=0.005 ISP-F=0.025 MW-L=0.028 MW-F=0.026]
  Alt-Benders[1]: gap=2.47e-10 ≤ tol, break
  OMP re-solve: 0.027s

=== True-DRO Benders iter 7 ===
  OMP: t₀=33.016450, UB=33.016451, gap=2.47e-10, x=[0, 0, 0, 0, 0, 1, 0, 0, 0, 0, 0, 0, 0, 0, 0, 0, 0, 0, 0, 0, 0, 0, 0, 0, 0, 0, 0, 0, 0, 0, 0, 0, 0, 0, 0, 0] (0.000s)
  Sub: Z₀=32.662310 [LOCAL], α=[0.000,0.000,0.145,0.000,0.000,10.270,0.000,0.000,0.000,0.000,0.000,0.000,0.000,2.608,0.000,0.000,0.000,1.060,0.000,0.000,0.000,0.000,0.492,0.000,0.000,0.000,0.000,0.000,0.000,0.000,0.000,0.000,1.033,0.173,0.000,0.000]
  Iter 7: LB=33.016450  UB=33.016451  gap=2.47e-10
True-DRO Benders converged at iter 7 (gap=2.47e-10)
  Wall time: 30.21 sec
  OMP  time: mean=0.026s, median=0.030s, max=0.072s
  Sub  time (exact): mean=1.024s, median=1.024s, q90=1.068s, max=1.079s (n=2/7)

Robust: Z₀=33.016451, iters=7, time=44.0s
x_rob arcs = [6]

============================================================
x_nom arcs: [6]
x_rob arcs: [6]
SAME? true
============================================================
